 $CONTRL RUNTYP=ENERGY EXETYP=RUN COORD=UNIQUE NORMF=1 UNITS=BOHR MULT=3
         ISPHER=1                                                               # gives 5 rather than 6 d fns etc.
         SCFTYP=NONE CITYP=GUGA MAXIT=200 $END                                  # CI only
#        SCFTYP=ROHF $END                                                       # ROHF only
#        SCFTYP=MCSCF CITYP=NONE MAXIT=200 $END                                 # MCSCF only
 $SYSTEM MWORDS=100 $END
#$GUESS  GUESS=HUCKEL PRTMO=.TRUE. $END                                         # ROHF only
 $GUESS  GUESS=MOREAD PRTMO=.TRUE. NORB=23 $END                                 # MCSCF and CI only
#$DFT    DFTTYP=SVWN THRESH=1.0E-15 $END
#$SCF    MVOQ=0 DIRSCF=.FALSE. RSTRCT=.TRUE. $END
#$SCF    DIIS=.F. SOSCF=.T. $END                                                # sometimes needed to get correct convergence for DNH 4
#$MCSCF  CISTEP=GUGA MAXIT=200 $END                                             # MCSCF only
#$DRT    GROUP=D2H IEXCIT=4 NDOC=1 NALP=2 NVAL=5  NMCC=1 NPRT=1                 # MCSCF only
#        NEXT=0 SOCI=.FALSE. $END                                               # MCSCF only
 $CIDRT  GROUP=D2H IEXCIT=4 NDOC=1 NALP=2 NVAL=5 NFZC=1 NPRT=2 $END             # CI only
 $GUGDIA NSTATE=1 PRTTOL=0.001 KPRINT=2 $END                                    # MCSCF and CI only

 $DATA
C with D2H symmetry and CVB1 basis
DNH 2

C 6.  0. 0. 0.
1S   14   8.361682
1S   14   5.206173
1S   14   10.30548
2S   14   4.063249
2S   14   2.057774
2S   14   1.329176
2P   14   3.571537
2P   14   1.748226
2P   14   1.059707
2P   14   8.081902
3D   14   1.953933

 $END
--- OPTIMIZED MCSCF MO-S --- GENERATED AT Wed Mar 15 20:18:18 2017
C with D2H symmetry and CVB1 basis                                              
E(MCSCF)=      -37.7316425662, E(NUC)=        0.0000000000
 $VEC   
 1  1 1.33499830E-01 8.88940571E-01 2.70398426E-03-1.96219279E-02 4.46653660E-04
 1  2-1.08528408E-02-0.00000000E+00-0.00000000E+00-0.00000000E+00-0.00000000E+00
 1  3-0.00000000E+00-0.00000000E+00-0.00000000E+00-0.00000000E+00-0.00000000E+00
 1  4-0.00000000E+00-0.00000000E+00-0.00000000E+00 2.36880929E-04 2.36880929E-04
 1  5-4.73761858E-04-0.00000000E+00-0.00000000E+00-0.00000000E+00
 2  1 8.32973849E-02-2.89302237E-01-4.09161741E-02-1.61051752E-02 5.47152366E-01
 2  2 5.36908980E-01-0.00000000E+00-0.00000000E+00-0.00000000E+00-0.00000000E+00
 2  3-0.00000000E+00-0.00000000E+00-0.00000000E+00-0.00000000E+00-0.00000000E+00
 2  4-0.00000000E+00-0.00000000E+00-0.00000000E+00-3.26985373E-03-3.26985373E-03
 2  5 6.53970746E-03-0.00000000E+00-0.00000000E+00-0.00000000E+00
 3  1-0.00000000E+00-0.00000000E+00-0.00000000E+00-0.00000000E+00-0.00000000E+00
 3  2-0.00000000E+00 8.18663970E-02-0.00000000E+00-0.00000000E+00 3.48490317E-01
 3  3-0.00000000E+00-0.00000000E+00 6.36779099E-01-0.00000000E+00-0.00000000E+00
 3  4 2.06077147E-03-0.00000000E+00-0.00000000E+00-0.00000000E+00-0.00000000E+00
 3  5-0.00000000E+00-0.00000000E+00-0.00000000E+00-0.00000000E+00
 4  1-0.00000000E+00-0.00000000E+00-0.00000000E+00-0.00000000E+00-0.00000000E+00
 4  2-0.00000000E+00-0.00000000E+00 8.18663970E-02-0.00000000E+00-0.00000000E+00
 4  3 3.48490317E-01-0.00000000E+00-0.00000000E+00 6.36779099E-01-0.00000000E+00
 4  4-0.00000000E+00 2.06077147E-03-0.00000000E+00-0.00000000E+00-0.00000000E+00
 4  5-0.00000000E+00-0.00000000E+00-0.00000000E+00-0.00000000E+00
 5  1-0.00000000E+00-0.00000000E+00-0.00000000E+00-0.00000000E+00-0.00000000E+00
 5  2-0.00000000E+00-0.00000000E+00-0.00000000E+00-1.11976090E-01-0.00000000E+00
 5  3-0.00000000E+00 6.94516596E-01-0.00000000E+00-0.00000000E+00 4.05984855E-01
 5  4-0.00000000E+00-0.00000000E+00 2.79317980E-02-0.00000000E+00-0.00000000E+00
 5  5-0.00000000E+00-0.00000000E+00-0.00000000E+00-0.00000000E+00
 6  1-0.00000000E+00-0.00000000E+00-0.00000000E+00-0.00000000E+00-0.00000000E+00
 6  2-0.00000000E+00-0.00000000E+00-1.53654521E-01-0.00000000E+00-0.00000000E+00
 6  3-1.66555654E+00-0.00000000E+00-0.00000000E+00 1.73215825E+00-0.00000000E+00
 6  4-0.00000000E+00 1.20598113E-02-0.00000000E+00-0.00000000E+00-0.00000000E+00
 6  5-0.00000000E+00-0.00000000E+00-0.00000000E+00-0.00000000E+00
 7  1-0.00000000E+00-0.00000000E+00-0.00000000E+00-0.00000000E+00-0.00000000E+00
 7  2-0.00000000E+00-1.53654521E-01-0.00000000E+00-0.00000000E+00-1.66555654E+00
 7  3-0.00000000E+00-0.00000000E+00 1.73215825E+00-0.00000000E+00-0.00000000E+00
 7  4 1.20598113E-02-0.00000000E+00-0.00000000E+00-0.00000000E+00-0.00000000E+00
 7  5-0.00000000E+00-0.00000000E+00-0.00000000E+00-0.00000000E+00
 8  1-1.47661971E-01-9.84050696E-02 4.48649601E-02-4.17422541E-01 2.66610773E+00
 8  2-2.33544953E+00-0.00000000E+00-0.00000000E+00-0.00000000E+00-0.00000000E+00
 8  3-0.00000000E+00-0.00000000E+00-0.00000000E+00-0.00000000E+00-0.00000000E+00
 8  4-0.00000000E+00-0.00000000E+00-0.00000000E+00 1.55854513E-01 1.55854513E-01
 8  5-3.11709026E-01-0.00000000E+00-0.00000000E+00-0.00000000E+00
 9  1-0.00000000E+00-0.00000000E+00-0.00000000E+00-0.00000000E+00-0.00000000E+00
 9  2-0.00000000E+00-0.00000000E+00-0.00000000E+00-4.16280858E-01-0.00000000E+00
 9  3-0.00000000E+00-1.28950007E+00-0.00000000E+00-0.00000000E+00 1.54517226E+00
 9  4-0.00000000E+00-0.00000000E+00 7.01080310E-02-0.00000000E+00-0.00000000E+00
 9  5-0.00000000E+00-0.00000000E+00-0.00000000E+00-0.00000000E+00
10  1-7.08520589E-01 5.72725706E-01 2.97105153E-01-5.77832657E-01 1.20982965E+00
10  2-9.34597564E-01 0.00000000E+00 0.00000000E+00 0.00000000E+00 0.00000000E+00
10  3 0.00000000E+00 0.00000000E+00 0.00000000E+00 0.00000000E+00 0.00000000E+00
10  4 0.00000000E+00 0.00000000E+00 0.00000000E+00-4.73953866E-01-4.73953866E-01
10  5 9.47907731E-01 0.00000000E+00 0.00000000E+00 0.00000000E+00
11  1 0.00000000E+00 0.00000000E+00 0.00000000E+00 0.00000000E+00 0.00000000E+00
11  2 0.00000000E+00 0.00000000E+00 0.00000000E+00 0.00000000E+00 0.00000000E+00
11  3 0.00000000E+00 0.00000000E+00 0.00000000E+00 0.00000000E+00 0.00000000E+00
11  4 0.00000000E+00 0.00000000E+00 0.00000000E+00 0.00000000E+00 0.00000000E+00
11  5 0.00000000E+00 0.00000000E+00 0.00000000E+00 1.00000001E+00
12  1 0.00000000E+00 0.00000000E+00 0.00000000E+00 0.00000000E+00 0.00000000E+00
12  2 0.00000000E+00 0.00000000E+00 0.00000000E+00 0.00000000E+00 0.00000000E+00
12  3 0.00000000E+00 0.00000000E+00 0.00000000E+00 0.00000000E+00 0.00000000E+00
12  4 0.00000000E+00 0.00000000E+00 0.00000000E+00 0.00000000E+00 0.00000000E+00
12  5 0.00000000E+00 0.00000000E+00 1.00000001E+00 0.00000000E+00
13  1-0.00000000E+00-0.00000000E+00-0.00000000E+00-0.00000000E+00-0.00000000E+00
13  2-0.00000000E+00-0.00000000E+00-0.00000000E+00-0.00000000E+00-0.00000000E+00
13  3-0.00000000E+00-0.00000000E+00-0.00000000E+00-0.00000000E+00-0.00000000E+00
13  4-0.00000000E+00-0.00000000E+00-0.00000000E+00 8.66025408E-01-8.66025408E-01
13  5-0.00000000E+00-0.00000000E+00-0.00000000E+00-0.00000000E+00
14  1 0.00000000E+00 0.00000000E+00 0.00000000E+00 0.00000000E+00 0.00000000E+00
14  2 0.00000000E+00 0.00000000E+00 0.00000000E+00 0.00000000E+00 0.00000000E+00
14  3 0.00000000E+00 0.00000000E+00 0.00000000E+00 0.00000000E+00 0.00000000E+00
14  4 0.00000000E+00 0.00000000E+00 0.00000000E+00 0.00000000E+00 0.00000000E+00
14  5 0.00000000E+00 1.00000001E+00 0.00000000E+00 0.00000000E+00
15  1-0.00000000E+00-0.00000000E+00-0.00000000E+00-0.00000000E+00-0.00000000E+00
15  2-0.00000000E+00-0.00000000E+00-0.00000000E+00-2.08049617E+00-0.00000000E+00
15  3-0.00000000E+00 3.07248424E+00-0.00000000E+00-0.00000000E+00-1.88208371E+00
15  4-0.00000000E+00-0.00000000E+00 2.49877747E-01-0.00000000E+00-0.00000000E+00
15  5-0.00000000E+00-0.00000000E+00-0.00000000E+00-0.00000000E+00
16  1-0.00000000E+00-0.00000000E+00-0.00000000E+00-0.00000000E+00-0.00000000E+00
16  2-0.00000000E+00-0.00000000E+00-2.10802427E+00-0.00000000E+00-0.00000000E+00
16  3 2.95639568E+00-0.00000000E+00-0.00000000E+00-1.65064590E+00-0.00000000E+00
16  4-0.00000000E+00 2.51093013E-01-0.00000000E+00-0.00000000E+00-0.00000000E+00
16  5-0.00000000E+00-0.00000000E+00-0.00000000E+00-0.00000000E+00
17  1-0.00000000E+00-0.00000000E+00-0.00000000E+00-0.00000000E+00-0.00000000E+00
17  2-0.00000000E+00-2.10802427E+00-0.00000000E+00-0.00000000E+00 2.95639568E+00
17  3-0.00000000E+00-0.00000000E+00-1.65064590E+00-0.00000000E+00-0.00000000E+00
17  4 2.51093013E-01-0.00000000E+00-0.00000000E+00-0.00000000E+00-0.00000000E+00
17  5-0.00000000E+00-0.00000000E+00-0.00000000E+00-0.00000000E+00
18  1 9.13769115E+00-8.46457380E+00-3.87521949E+00 6.28831742E+00-4.84468871E+00
18  2 2.34628919E+00 0.00000000E+00 0.00000000E+00 0.00000000E+00 0.00000000E+00
18  3 0.00000000E+00 0.00000000E+00 0.00000000E+00 0.00000000E+00 0.00000000E+00
18  4 0.00000000E+00 0.00000000E+00 0.00000000E+00-3.26520588E-02-3.26520588E-02
18  5 6.53041176E-02 0.00000000E+00 0.00000000E+00 0.00000000E+00
19  1 2.52541790E+01-1.75421859E+01-1.19148733E+01 6.93819551E+00-2.95309981E+00
19  2 1.19388438E+00-0.00000000E+00-0.00000000E+00-0.00000000E+00-0.00000000E+00
19  3-0.00000000E+00-0.00000000E+00-0.00000000E+00-0.00000000E+00-0.00000000E+00
19  4-0.00000000E+00-0.00000000E+00-0.00000000E+00-4.41807388E-04-4.41807388E-04
19  5 8.83614776E-04-0.00000000E+00-0.00000000E+00-0.00000000E+00
20  1 0.00000000E+00 0.00000000E+00 0.00000000E+00 0.00000000E+00 0.00000000E+00
20  2 0.00000000E+00 0.00000000E+00 0.00000000E+00 1.70634511E+00 0.00000000E+00
20  3 0.00000000E+00-1.40868026E+00 0.00000000E+00 0.00000000E+00 6.75771920E-01
20  4 0.00000000E+00 0.00000000E+00-1.57502992E+00 0.00000000E+00 0.00000000E+00
20  5 0.00000000E+00 0.00000000E+00 0.00000000E+00 0.00000000E+00
21  1 0.00000000E+00 0.00000000E+00 0.00000000E+00 0.00000000E+00 0.00000000E+00
21  2 0.00000000E+00 0.00000000E+00 1.71808853E+00 0.00000000E+00 0.00000000E+00
21  3-1.39064867E+00 0.00000000E+00 0.00000000E+00 6.48687952E-01 0.00000000E+00
21  4 0.00000000E+00-1.57659636E+00 0.00000000E+00 0.00000000E+00 0.00000000E+00
21  5 0.00000000E+00 0.00000000E+00 0.00000000E+00 0.00000000E+00
22  1 0.00000000E+00 0.00000000E+00 0.00000000E+00 0.00000000E+00 0.00000000E+00
22  2 0.00000000E+00 1.71808853E+00 0.00000000E+00 0.00000000E+00-1.39064867E+00
22  3 0.00000000E+00 0.00000000E+00 6.48687952E-01 0.00000000E+00 0.00000000E+00
22  4-1.57659636E+00 0.00000000E+00 0.00000000E+00 0.00000000E+00 0.00000000E+00
22  5 0.00000000E+00 0.00000000E+00 0.00000000E+00 0.00000000E+00
23  1 3.76126797E+01-1.84965100E+01-2.34558643E+01 5.77284971E+00-2.15719790E+00
23  2 8.56075235E-01 0.00000000E+00 0.00000000E+00 0.00000000E+00 0.00000000E+00
23  3 0.00000000E+00 0.00000000E+00 0.00000000E+00 0.00000000E+00 0.00000000E+00
23  4 0.00000000E+00 0.00000000E+00 0.00000000E+00-8.05480845E-05-8.05480845E-05
23  5 1.61096169E-04 0.00000000E+00 0.00000000E+00 0.00000000E+00
 $END   
 POPULATION ANALYSIS
C            6.00000  -0.00000   6.00000   0.00000
 MOMENTS AT POINT    1 X,Y,Z=  0.000000  0.000000  0.000000
 DIPOLE       0.000000  0.000000  0.000000
