 $CONTRL RUNTYP=ENERGY EXETYP=RUN COORD=UNIQUE NORMF=1 UNITS=BOHR MULT=2
         ISPHER=1                                                               # gives 5 rather than 6 d fns etc.
         SCFTYP=NONE CITYP=GUGA MAXIT=200 $END                                  # CI only
#        SCFTYP=MCSCF CITYP=NONE MAXIT=200 $END                                 # MCSCF only
#        SCFTYP=ROHF $END                                                       # ROHF only
 $SYSTEM MWORDS=100 $END
#$GUESS  GUESS=HUCKEL PRTMO=.TRUE. $END                                         # ROHF only
 $GUESS  GUESS=MOREAD PRTMO=.TRUE. NORB=29 $END                                 # MCSCF and CI only
#$DFT    DFTTYP=SVWN THRESH=1.0E-15 $END
#$SCF    MVOQ=0 DIRSCF=.FALSE. RSTRCT=.TRUE. $END
#$MCSCF  CISTEP=GUGA MAXIT=200 $END                                             # MCSCF only
#$DRT    GROUP=D2H IEXCIT=3 NDOC=2 NALP=1 NVAL=18 NMCC=8 NPRT=1                 # MCSCF only
#        NEXT=0 SOCI=.FALSE. $END                                               # MCSCF only
 $CIDRT  GROUP=D2H IEXCIT=3 NDOC=2 NALP=1 NVAL=18 NFZC=8 NPRT=2 $END            # CI only
 $GUGDIA NSTATE=1 PRTTOL=0.001 KPRINT=2 $END                                    # MCSCF and CI only

 $DATA
Sc ROHF with D4H symmetry and Bunge basis
DNH 2

Sc 21.0      0.0        0.0        0.0
  1S  10    21.7237
  2S  10    18.5964
  2S  10     8.5331
  3S  10    26.6635
  3S  10     6.3629
  3S  10     4.4087
  3S  10     2.9836
  4S  10    10.0558
  4S  10     1.7339
  4S  10     1.1548
  4S  10     0.8074
  2P  10    31.2091
  2P  10    12.6896
  2P  10     6.5469
  2P  10     2.7945
  3P  10    10.0778
  3P  10     2.3661
  3P  10     1.4540
  3D  10     9.8549
  3D  10     4.8498
  3D  10     2.9200
  3D  10     1.7389
  3D  10     1.0594

 $END
--- OPEN SHELL ORBITALS --- GENERATED AT Wed Mar 15 23:53:38 2017
Sc ROHF with OH symmetry and Bunge basis                                       
E(ROHF)=     -759.6134330547, E(NUC)=    0.0000000000,   11 ITERS
 $VEC   
 1  1 9.29226267E-01 7.69470268E-02 1.47601688E-03 1.01682242E-02 1.26054692E-04
 1  2-2.10622089E-04 4.78198816E-05-1.42403420E-04-7.75285515E-06 5.41582767E-06
 1  3-2.11461506E-06 0.00000000E+00 0.00000000E+00 0.00000000E+00 0.00000000E+00
 1  4 0.00000000E+00 0.00000000E+00 0.00000000E+00 0.00000000E+00 0.00000000E+00
 1  5 0.00000000E+00 0.00000000E+00 0.00000000E+00 0.00000000E+00 0.00000000E+00
 1  6 0.00000000E+00 0.00000000E+00 0.00000000E+00 0.00000000E+00 0.00000000E+00
 1  7 0.00000000E+00 0.00000000E+00 0.00000000E+00 0.00000000E+00 0.00000000E+00
 1  8 0.00000000E+00 0.00000000E+00 0.00000000E+00 0.00000000E+00 0.00000000E+00
 1  9 0.00000000E+00 0.00000000E+00 0.00000000E+00 0.00000000E+00 0.00000000E+00
 1 10 0.00000000E+00 0.00000000E+00 0.00000000E+00 0.00000000E+00 0.00000000E+00
 1 11 0.00000000E+00 0.00000000E+00 0.00000000E+00 0.00000000E+00 0.00000000E+00
 1 12 0.00000000E+00 0.00000000E+00 0.00000000E+00 0.00000000E+00 0.00000000E+00
 1 13 0.00000000E+00 0.00000000E+00
 2  1-2.70646407E-01-1.63569992E-01 1.03182825E+00 2.04083032E-03 1.33337295E-01
 2  2-3.71076445E-02 1.31511075E-02 1.16231761E-02-1.61334538E-03 1.18231263E-03
 2  3-4.58187943E-04-0.00000000E+00-0.00000000E+00-0.00000000E+00-0.00000000E+00
 2  4-0.00000000E+00-0.00000000E+00-0.00000000E+00-0.00000000E+00-0.00000000E+00
 2  5-0.00000000E+00-0.00000000E+00-0.00000000E+00-0.00000000E+00-0.00000000E+00
 2  6-0.00000000E+00-0.00000000E+00-0.00000000E+00-0.00000000E+00-0.00000000E+00
 2  7-0.00000000E+00-0.00000000E+00-0.00000000E+00-0.00000000E+00-0.00000000E+00
 2  8-0.00000000E+00-0.00000000E+00-0.00000000E+00-0.00000000E+00-0.00000000E+00
 2  9-0.00000000E+00-0.00000000E+00-0.00000000E+00-0.00000000E+00-0.00000000E+00
 2 10-0.00000000E+00-0.00000000E+00-0.00000000E+00-0.00000000E+00-0.00000000E+00
 2 11-0.00000000E+00-0.00000000E+00-0.00000000E+00-0.00000000E+00-0.00000000E+00
 2 12-0.00000000E+00-0.00000000E+00-0.00000000E+00-0.00000000E+00-0.00000000E+00
 2 13-0.00000000E+00-0.00000000E+00
 3  1-0.00000000E+00-0.00000000E+00-0.00000000E+00-0.00000000E+00-0.00000000E+00
 3  2-0.00000000E+00-0.00000000E+00-0.00000000E+00-0.00000000E+00-0.00000000E+00
 3  3-0.00000000E+00 1.16583301E-03-0.00000000E+00-0.00000000E+00 3.41578660E-01
 3  4-0.00000000E+00-0.00000000E+00 4.15673957E-01-0.00000000E+00-0.00000000E+00
 3  5 2.81806289E-03-0.00000000E+00-0.00000000E+00 2.96869706E-01-0.00000000E+00
 3  6-0.00000000E+00-1.04705079E-03-0.00000000E+00-0.00000000E+00 8.67916542E-05
 3  7-0.00000000E+00-0.00000000E+00-0.00000000E+00-0.00000000E+00-0.00000000E+00
 3  8-0.00000000E+00-0.00000000E+00-0.00000000E+00-0.00000000E+00-0.00000000E+00
 3  9-0.00000000E+00-0.00000000E+00-0.00000000E+00-0.00000000E+00-0.00000000E+00
 3 10-0.00000000E+00-0.00000000E+00-0.00000000E+00-0.00000000E+00-0.00000000E+00
 3 11-0.00000000E+00-0.00000000E+00-0.00000000E+00-0.00000000E+00-0.00000000E+00
 3 12-0.00000000E+00-0.00000000E+00-0.00000000E+00-0.00000000E+00-0.00000000E+00
 3 13-0.00000000E+00-0.00000000E+00
 4  1-0.00000000E+00-0.00000000E+00-0.00000000E+00-0.00000000E+00-0.00000000E+00
 4  2-0.00000000E+00-0.00000000E+00-0.00000000E+00-0.00000000E+00-0.00000000E+00
 4  3-0.00000000E+00-0.00000000E+00 1.16583301E-03-0.00000000E+00-0.00000000E+00
 4  4 3.41578660E-01-0.00000000E+00-0.00000000E+00 4.15673957E-01-0.00000000E+00
 4  5-0.00000000E+00 2.81806289E-03-0.00000000E+00-0.00000000E+00 2.96869706E-01
 4  6-0.00000000E+00-0.00000000E+00-1.04705079E-03-0.00000000E+00-0.00000000E+00
 4  7 8.67916542E-05-0.00000000E+00-0.00000000E+00-0.00000000E+00-0.00000000E+00
 4  8-0.00000000E+00-0.00000000E+00-0.00000000E+00-0.00000000E+00-0.00000000E+00
 4  9-0.00000000E+00-0.00000000E+00-0.00000000E+00-0.00000000E+00-0.00000000E+00
 4 10-0.00000000E+00-0.00000000E+00-0.00000000E+00-0.00000000E+00-0.00000000E+00
 4 11-0.00000000E+00-0.00000000E+00-0.00000000E+00-0.00000000E+00-0.00000000E+00
 4 12-0.00000000E+00-0.00000000E+00-0.00000000E+00-0.00000000E+00-0.00000000E+00
 4 13-0.00000000E+00-0.00000000E+00
 5  1-0.00000000E+00-0.00000000E+00-0.00000000E+00-0.00000000E+00-0.00000000E+00
 5  2-0.00000000E+00-0.00000000E+00-0.00000000E+00-0.00000000E+00-0.00000000E+00
 5  3-0.00000000E+00-0.00000000E+00-0.00000000E+00 1.16583301E-03-0.00000000E+00
 5  4-0.00000000E+00 3.41578660E-01-0.00000000E+00-0.00000000E+00 4.15673957E-01
 5  5-0.00000000E+00-0.00000000E+00 2.81806289E-03-0.00000000E+00-0.00000000E+00
 5  6 2.96869706E-01-0.00000000E+00-0.00000000E+00-1.04705079E-03-0.00000000E+00
 5  7-0.00000000E+00 8.67916542E-05-0.00000000E+00-0.00000000E+00-0.00000000E+00
 5  8-0.00000000E+00-0.00000000E+00-0.00000000E+00-0.00000000E+00-0.00000000E+00
 5  9-0.00000000E+00-0.00000000E+00-0.00000000E+00-0.00000000E+00-0.00000000E+00
 5 10-0.00000000E+00-0.00000000E+00-0.00000000E+00-0.00000000E+00-0.00000000E+00
 5 11-0.00000000E+00-0.00000000E+00-0.00000000E+00-0.00000000E+00-0.00000000E+00
 5 12-0.00000000E+00-0.00000000E+00-0.00000000E+00-0.00000000E+00-0.00000000E+00
 5 13-0.00000000E+00-0.00000000E+00
 6  1 9.42583817E-02 6.40201135E-02-4.39180080E-01-2.62066420E-03-1.88655172E-01
 6  2 6.29864141E-01 6.14084810E-01-1.27984220E-02 4.51598164E-03-2.57585506E-03
 6  3 6.03675284E-04-0.00000000E+00-0.00000000E+00-0.00000000E+00-0.00000000E+00
 6  4-0.00000000E+00-0.00000000E+00-0.00000000E+00-0.00000000E+00-0.00000000E+00
 6  5-0.00000000E+00-0.00000000E+00-0.00000000E+00-0.00000000E+00-0.00000000E+00
 6  6-0.00000000E+00-0.00000000E+00-0.00000000E+00-0.00000000E+00-0.00000000E+00
 6  7-0.00000000E+00-0.00000000E+00-0.00000000E+00-0.00000000E+00-0.00000000E+00
 6  8-0.00000000E+00-0.00000000E+00-0.00000000E+00-0.00000000E+00-0.00000000E+00
 6  9-0.00000000E+00-0.00000000E+00-0.00000000E+00-0.00000000E+00-0.00000000E+00
 6 10-0.00000000E+00-0.00000000E+00-0.00000000E+00-0.00000000E+00-0.00000000E+00
 6 11-0.00000000E+00-0.00000000E+00-0.00000000E+00-0.00000000E+00-0.00000000E+00
 6 12-0.00000000E+00-0.00000000E+00-0.00000000E+00-0.00000000E+00-0.00000000E+00
 6 13-0.00000000E+00-0.00000000E+00
 7  1 0.00000000E+00 0.00000000E+00 0.00000000E+00 0.00000000E+00 0.00000000E+00
 7  2 0.00000000E+00 0.00000000E+00 0.00000000E+00 0.00000000E+00 0.00000000E+00
 7  3 0.00000000E+00 0.00000000E+00-2.54533687E-04 0.00000000E+00 0.00000000E+00
 7  4-7.37592370E-02 0.00000000E+00 0.00000000E+00-4.67082435E-01 0.00000000E+00
 7  5 0.00000000E+00 9.03412696E-01 0.00000000E+00 0.00000000E+00-1.01502765E-02
 7  6 0.00000000E+00 0.00000000E+00 3.01488459E-01 0.00000000E+00 0.00000000E+00
 7  7 1.88487485E-02 0.00000000E+00 0.00000000E+00 0.00000000E+00 0.00000000E+00
 7  8 0.00000000E+00 0.00000000E+00 0.00000000E+00 0.00000000E+00 0.00000000E+00
 7  9 0.00000000E+00 0.00000000E+00 0.00000000E+00 0.00000000E+00 0.00000000E+00
 7 10 0.00000000E+00 0.00000000E+00 0.00000000E+00 0.00000000E+00 0.00000000E+00
 7 11 0.00000000E+00 0.00000000E+00 0.00000000E+00 0.00000000E+00 0.00000000E+00
 7 12 0.00000000E+00 0.00000000E+00 0.00000000E+00 0.00000000E+00 0.00000000E+00
 7 13 0.00000000E+00 0.00000000E+00
 8  1 0.00000000E+00 0.00000000E+00 0.00000000E+00 0.00000000E+00 0.00000000E+00
 8  2 0.00000000E+00 0.00000000E+00 0.00000000E+00 0.00000000E+00 0.00000000E+00
 8  3 0.00000000E+00-2.54533687E-04 0.00000000E+00 0.00000000E+00-7.37592370E-02
 8  4 0.00000000E+00 0.00000000E+00-4.67082435E-01 0.00000000E+00 0.00000000E+00
 8  5 9.03412696E-01 0.00000000E+00 0.00000000E+00-1.01502765E-02 0.00000000E+00
 8  6 0.00000000E+00 3.01488459E-01 0.00000000E+00 0.00000000E+00 1.88487485E-02
 8  7 0.00000000E+00 0.00000000E+00 0.00000000E+00 0.00000000E+00 0.00000000E+00
 8  8 0.00000000E+00 0.00000000E+00 0.00000000E+00 0.00000000E+00 0.00000000E+00
 8  9 0.00000000E+00 0.00000000E+00 0.00000000E+00 0.00000000E+00 0.00000000E+00
 8 10 0.00000000E+00 0.00000000E+00 0.00000000E+00 0.00000000E+00 0.00000000E+00
 8 11 0.00000000E+00 0.00000000E+00 0.00000000E+00 0.00000000E+00 0.00000000E+00
 8 12 0.00000000E+00 0.00000000E+00 0.00000000E+00 0.00000000E+00 0.00000000E+00
 8 13 0.00000000E+00 0.00000000E+00
 9  1 0.00000000E+00 0.00000000E+00 0.00000000E+00 0.00000000E+00 0.00000000E+00
 9  2 0.00000000E+00 0.00000000E+00 0.00000000E+00 0.00000000E+00 0.00000000E+00
 9  3 0.00000000E+00 0.00000000E+00 0.00000000E+00-2.54533687E-04 0.00000000E+00
 9  4 0.00000000E+00-7.37592370E-02 0.00000000E+00 0.00000000E+00-4.67082435E-01
 9  5 0.00000000E+00 0.00000000E+00 9.03412696E-01 0.00000000E+00 0.00000000E+00
 9  6-1.01502765E-02 0.00000000E+00 0.00000000E+00 3.01488459E-01 0.00000000E+00
 9  7 0.00000000E+00 1.88487485E-02 0.00000000E+00 0.00000000E+00 0.00000000E+00
 9  8 0.00000000E+00 0.00000000E+00 0.00000000E+00 0.00000000E+00 0.00000000E+00
 9  9 0.00000000E+00 0.00000000E+00 0.00000000E+00 0.00000000E+00 0.00000000E+00
 9 10 0.00000000E+00 0.00000000E+00 0.00000000E+00 0.00000000E+00 0.00000000E+00
 9 11 0.00000000E+00 0.00000000E+00 0.00000000E+00 0.00000000E+00 0.00000000E+00
 9 12 0.00000000E+00 0.00000000E+00 0.00000000E+00 0.00000000E+00 0.00000000E+00
 9 13 0.00000000E+00 0.00000000E+00
10  1-1.82739181E-02-1.02109964E-02 1.52194393E-01-1.93054122E-03 2.26627423E-01
10  2-2.27522024E-01 6.96789981E-01-1.91465117E-03 3.16179058E-01 1.94840272E-01
10  3 1.57248552E-01-0.00000000E+00-0.00000000E+00-0.00000000E+00-0.00000000E+00
10  4-0.00000000E+00-0.00000000E+00-0.00000000E+00-0.00000000E+00-0.00000000E+00
10  5-0.00000000E+00-0.00000000E+00-0.00000000E+00-0.00000000E+00-0.00000000E+00
10  6-0.00000000E+00-0.00000000E+00-0.00000000E+00-0.00000000E+00-0.00000000E+00
10  7-0.00000000E+00-0.00000000E+00-0.00000000E+00-0.00000000E+00-0.00000000E+00
10  8-0.00000000E+00-0.00000000E+00-0.00000000E+00-0.00000000E+00-0.00000000E+00
10  9-0.00000000E+00-0.00000000E+00-0.00000000E+00-0.00000000E+00-0.00000000E+00
10 10-0.00000000E+00-0.00000000E+00-0.00000000E+00-0.00000000E+00-0.00000000E+00
10 11-0.00000000E+00-0.00000000E+00-0.00000000E+00-0.00000000E+00-0.00000000E+00
10 12-0.00000000E+00-0.00000000E+00-0.00000000E+00-0.00000000E+00-0.00000000E+00
10 13-0.00000000E+00-0.00000000E+00
11  1-0.00000000E+00-0.00000000E+00-0.00000000E+00-0.00000000E+00-0.00000000E+00
11  2-0.00000000E+00-0.00000000E+00-0.00000000E+00-0.00000000E+00-0.00000000E+00
11  3-0.00000000E+00-0.00000000E+00-0.00000000E+00-0.00000000E+00-0.00000000E+00
11  4-0.00000000E+00-0.00000000E+00-0.00000000E+00-0.00000000E+00-0.00000000E+00
11  5-0.00000000E+00-0.00000000E+00-0.00000000E+00-0.00000000E+00-0.00000000E+00
11  6-0.00000000E+00-0.00000000E+00-0.00000000E+00-0.00000000E+00-0.00000000E+00
11  7-0.00000000E+00-0.00000000E+00-7.19757663E-03-7.19757663E-03 1.43951533E-02
11  8-0.00000000E+00-0.00000000E+00-0.00000000E+00-6.21860929E-02-6.21860929E-02
11  9 1.24372186E-01-0.00000000E+00-0.00000000E+00-0.00000000E+00-1.74364343E-01
11 10-1.74364343E-01 3.48728686E-01-0.00000000E+00-0.00000000E+00-0.00000000E+00
11 11-1.34568163E-01-1.34568163E-01 2.69136326E-01-0.00000000E+00-0.00000000E+00
11 12-0.00000000E+00-2.21954468E-01-2.21954468E-01 4.43908937E-01-0.00000000E+00
11 13-0.00000000E+00-0.00000000E+00
12  1-0.00000000E+00-0.00000000E+00-0.00000000E+00-0.00000000E+00-0.00000000E+00
12  2-0.00000000E+00-0.00000000E+00-0.00000000E+00-0.00000000E+00-0.00000000E+00
12  3-0.00000000E+00-0.00000000E+00-0.00000000E+00-0.00000000E+00-0.00000000E+00
12  4-0.00000000E+00-0.00000000E+00-0.00000000E+00-0.00000000E+00-0.00000000E+00
12  5-0.00000000E+00-0.00000000E+00-0.00000000E+00-0.00000000E+00-0.00000000E+00
12  6-0.00000000E+00-0.00000000E+00-0.00000000E+00-0.00000000E+00-0.00000000E+00
12  7-0.00000000E+00-0.00000000E+00 1.24665684E-02-1.24665684E-02-0.00000000E+00
12  8-0.00000000E+00-0.00000000E+00-0.00000000E+00 1.07709472E-01-1.07709472E-01
12  9-0.00000000E+00-0.00000000E+00-0.00000000E+00-0.00000000E+00 3.02007901E-01
12 10-3.02007901E-01-0.00000000E+00-0.00000000E+00-0.00000000E+00-0.00000000E+00
12 11 2.33078895E-01-2.33078895E-01-0.00000000E+00-0.00000000E+00-0.00000000E+00
12 12-0.00000000E+00 3.84436416E-01-3.84436416E-01-0.00000000E+00-0.00000000E+00
12 13-0.00000000E+00-0.00000000E+00
13  1 2.33816930E-02 1.16146541E-02 5.46335398E-02 1.11896937E-02-4.13477349E-01
13  2 9.51865355E-01-2.92287616E-01 2.66840534E-02 4.16156510E-01-8.77346841E-01
13  3 9.79359949E-01 0.00000000E+00 0.00000000E+00 0.00000000E+00 0.00000000E+00
13  4 0.00000000E+00 0.00000000E+00 0.00000000E+00 0.00000000E+00 0.00000000E+00
13  5 0.00000000E+00 0.00000000E+00 0.00000000E+00 0.00000000E+00 0.00000000E+00
13  6 0.00000000E+00 0.00000000E+00 0.00000000E+00 0.00000000E+00 0.00000000E+00
13  7 0.00000000E+00 0.00000000E+00 0.00000000E+00 0.00000000E+00 0.00000000E+00
13  8 0.00000000E+00 0.00000000E+00 0.00000000E+00 0.00000000E+00 0.00000000E+00
13  9 0.00000000E+00 0.00000000E+00 0.00000000E+00 0.00000000E+00 0.00000000E+00
13 10 0.00000000E+00 0.00000000E+00 0.00000000E+00 0.00000000E+00 0.00000000E+00
13 11 0.00000000E+00 0.00000000E+00 0.00000000E+00 0.00000000E+00 0.00000000E+00
13 12 0.00000000E+00 0.00000000E+00 0.00000000E+00 0.00000000E+00 0.00000000E+00
13 13 0.00000000E+00 0.00000000E+00
14  1-0.00000000E+00-0.00000000E+00-0.00000000E+00-0.00000000E+00-0.00000000E+00
14  2-0.00000000E+00-0.00000000E+00-0.00000000E+00-0.00000000E+00-0.00000000E+00
14  3-0.00000000E+00-0.00000000E+00-0.00000000E+00-0.00000000E+00-0.00000000E+00
14  4-0.00000000E+00-0.00000000E+00-0.00000000E+00-0.00000000E+00-0.00000000E+00
14  5-0.00000000E+00-0.00000000E+00-0.00000000E+00-0.00000000E+00-0.00000000E+00
14  6-0.00000000E+00-0.00000000E+00-0.00000000E+00-0.00000000E+00-0.00000000E+00
14  7-0.00000000E+00-0.00000000E+00-0.00000000E+00-0.00000000E+00-0.00000000E+00
14  8-0.00000000E+00-0.00000000E+00 1.52127621E-02-0.00000000E+00-0.00000000E+00
14  9-0.00000000E+00-0.00000000E+00-0.00000000E+00 6.26262198E-02-0.00000000E+00
14 10-0.00000000E+00-0.00000000E+00-0.00000000E+00-0.00000000E+00 3.88409006E-01
14 11-0.00000000E+00-0.00000000E+00-0.00000000E+00-0.00000000E+00-0.00000000E+00
14 12-7.51891896E-02-0.00000000E+00-0.00000000E+00-0.00000000E+00-0.00000000E+00
14 13-0.00000000E+00 8.13563219E-01
15  1-0.00000000E+00-0.00000000E+00-0.00000000E+00-0.00000000E+00-0.00000000E+00
15  2-0.00000000E+00-0.00000000E+00-0.00000000E+00-0.00000000E+00-0.00000000E+00
15  3-0.00000000E+00-0.00000000E+00-0.00000000E+00-0.00000000E+00-0.00000000E+00
15  4-0.00000000E+00-0.00000000E+00-0.00000000E+00-0.00000000E+00-0.00000000E+00
15  5-0.00000000E+00-0.00000000E+00-0.00000000E+00-0.00000000E+00-0.00000000E+00
15  6-0.00000000E+00-0.00000000E+00-0.00000000E+00-0.00000000E+00-0.00000000E+00
15  7-0.00000000E+00-0.00000000E+00-0.00000000E+00-0.00000000E+00-0.00000000E+00
15  8-0.00000000E+00 1.52127621E-02-0.00000000E+00-0.00000000E+00-0.00000000E+00
15  9-0.00000000E+00-0.00000000E+00 6.26262198E-02-0.00000000E+00-0.00000000E+00
15 10-0.00000000E+00-0.00000000E+00-0.00000000E+00 3.88409006E-01-0.00000000E+00
15 11-0.00000000E+00-0.00000000E+00-0.00000000E+00-0.00000000E+00-7.51891896E-02
15 12-0.00000000E+00-0.00000000E+00-0.00000000E+00-0.00000000E+00-0.00000000E+00
15 13 8.13563219E-01-0.00000000E+00
16  1-0.00000000E+00-0.00000000E+00-0.00000000E+00-0.00000000E+00-0.00000000E+00
16  2-0.00000000E+00-0.00000000E+00-0.00000000E+00-0.00000000E+00-0.00000000E+00
16  3-0.00000000E+00-0.00000000E+00-0.00000000E+00-0.00000000E+00-0.00000000E+00
16  4-0.00000000E+00-0.00000000E+00-0.00000000E+00-0.00000000E+00-0.00000000E+00
16  5-0.00000000E+00-0.00000000E+00-0.00000000E+00-0.00000000E+00-0.00000000E+00
16  6-0.00000000E+00-0.00000000E+00-0.00000000E+00-0.00000000E+00-0.00000000E+00
16  7-0.00000000E+00-0.00000000E+00-0.00000000E+00-0.00000000E+00-0.00000000E+00
16  8 1.52127621E-02-0.00000000E+00-0.00000000E+00-0.00000000E+00-0.00000000E+00
16  9-0.00000000E+00 6.26262198E-02-0.00000000E+00-0.00000000E+00-0.00000000E+00
16 10-0.00000000E+00-0.00000000E+00 3.88409006E-01-0.00000000E+00-0.00000000E+00
16 11-0.00000000E+00-0.00000000E+00-0.00000000E+00-7.51891896E-02-0.00000000E+00
16 12-0.00000000E+00-0.00000000E+00-0.00000000E+00-0.00000000E+00 8.13563219E-01
16 13-0.00000000E+00-0.00000000E+00
17  1 0.00000000E+00 0.00000000E+00 0.00000000E+00 0.00000000E+00 0.00000000E+00
17  2 0.00000000E+00 0.00000000E+00 0.00000000E+00 0.00000000E+00 0.00000000E+00
17  3 0.00000000E+00 3.17466069E-03 0.00000000E+00 0.00000000E+00 1.34095819E-01
17  4 0.00000000E+00 0.00000000E+00-5.84667814E-01 0.00000000E+00 0.00000000E+00
17  5 4.75160763E-01 0.00000000E+00 0.00000000E+00 3.95540356E-01 0.00000000E+00
17  6 0.00000000E+00-1.62591675E+00 0.00000000E+00 0.00000000E+00 1.84963254E+00
17  7 0.00000000E+00 0.00000000E+00 0.00000000E+00 0.00000000E+00 0.00000000E+00
17  8 0.00000000E+00 0.00000000E+00 0.00000000E+00 0.00000000E+00 0.00000000E+00
17  9 0.00000000E+00 0.00000000E+00 0.00000000E+00 0.00000000E+00 0.00000000E+00
17 10 0.00000000E+00 0.00000000E+00 0.00000000E+00 0.00000000E+00 0.00000000E+00
17 11 0.00000000E+00 0.00000000E+00 0.00000000E+00 0.00000000E+00 0.00000000E+00
17 12 0.00000000E+00 0.00000000E+00 0.00000000E+00 0.00000000E+00 0.00000000E+00
17 13 0.00000000E+00 0.00000000E+00
18  1 0.00000000E+00 0.00000000E+00 0.00000000E+00 0.00000000E+00 0.00000000E+00
18  2 0.00000000E+00 0.00000000E+00 0.00000000E+00 0.00000000E+00 0.00000000E+00
18  3 0.00000000E+00 0.00000000E+00 3.17466069E-03 0.00000000E+00 0.00000000E+00
18  4 1.34095819E-01 0.00000000E+00 0.00000000E+00-5.84667814E-01 0.00000000E+00
18  5 0.00000000E+00 4.75160763E-01 0.00000000E+00 0.00000000E+00 3.95540356E-01
18  6 0.00000000E+00 0.00000000E+00-1.62591675E+00 0.00000000E+00 0.00000000E+00
18  7 1.84963254E+00 0.00000000E+00 0.00000000E+00 0.00000000E+00 0.00000000E+00
18  8 0.00000000E+00 0.00000000E+00 0.00000000E+00 0.00000000E+00 0.00000000E+00
18  9 0.00000000E+00 0.00000000E+00 0.00000000E+00 0.00000000E+00 0.00000000E+00
18 10 0.00000000E+00 0.00000000E+00 0.00000000E+00 0.00000000E+00 0.00000000E+00
18 11 0.00000000E+00 0.00000000E+00 0.00000000E+00 0.00000000E+00 0.00000000E+00
18 12 0.00000000E+00 0.00000000E+00 0.00000000E+00 0.00000000E+00 0.00000000E+00
18 13 0.00000000E+00 0.00000000E+00
19  1 0.00000000E+00 0.00000000E+00 0.00000000E+00 0.00000000E+00 0.00000000E+00
19  2 0.00000000E+00 0.00000000E+00 0.00000000E+00 0.00000000E+00 0.00000000E+00
19  3 0.00000000E+00 0.00000000E+00 0.00000000E+00 3.17466069E-03 0.00000000E+00
19  4 0.00000000E+00 1.34095819E-01 0.00000000E+00 0.00000000E+00-5.84667814E-01
19  5 0.00000000E+00 0.00000000E+00 4.75160763E-01 0.00000000E+00 0.00000000E+00
19  6 3.95540356E-01 0.00000000E+00 0.00000000E+00-1.62591675E+00 0.00000000E+00
19  7 0.00000000E+00 1.84963254E+00 0.00000000E+00 0.00000000E+00 0.00000000E+00
19  8 0.00000000E+00 0.00000000E+00 0.00000000E+00 0.00000000E+00 0.00000000E+00
19  9 0.00000000E+00 0.00000000E+00 0.00000000E+00 0.00000000E+00 0.00000000E+00
19 10 0.00000000E+00 0.00000000E+00 0.00000000E+00 0.00000000E+00 0.00000000E+00
19 11 0.00000000E+00 0.00000000E+00 0.00000000E+00 0.00000000E+00 0.00000000E+00
19 12 0.00000000E+00 0.00000000E+00 0.00000000E+00 0.00000000E+00 0.00000000E+00
19 13 0.00000000E+00 0.00000000E+00
20  1 0.00000000E+00 0.00000000E+00 0.00000000E+00 0.00000000E+00 0.00000000E+00
20  2 0.00000000E+00 0.00000000E+00 0.00000000E+00 0.00000000E+00 0.00000000E+00
20  3 0.00000000E+00 0.00000000E+00 0.00000000E+00 0.00000000E+00 0.00000000E+00
20  4 0.00000000E+00 0.00000000E+00 0.00000000E+00 0.00000000E+00 0.00000000E+00
20  5 0.00000000E+00 0.00000000E+00 0.00000000E+00 0.00000000E+00 0.00000000E+00
20  6 0.00000000E+00 0.00000000E+00 0.00000000E+00 0.00000000E+00 0.00000000E+00
20  7 0.00000000E+00 0.00000000E+00-5.50006993E-03-5.50006993E-03 1.10001399E-02
20  8 0.00000000E+00 0.00000000E+00 0.00000000E+00 1.37206523E-01 1.37206523E-01
20  9-2.74413045E-01 0.00000000E+00 0.00000000E+00 0.00000000E+00-1.94757633E-01
20 10-1.94757633E-01 3.89515266E-01 0.00000000E+00 0.00000000E+00 0.00000000E+00
20 11 8.63941285E-01 8.63941285E-01-1.72788257E+00 0.00000000E+00 0.00000000E+00
20 12 0.00000000E+00-8.94488053E-01-8.94488053E-01 1.78897611E+00 0.00000000E+00
20 13 0.00000000E+00 0.00000000E+00
21  1 0.00000000E+00 0.00000000E+00 0.00000000E+00 0.00000000E+00 0.00000000E+00
21  2 0.00000000E+00 0.00000000E+00 0.00000000E+00 0.00000000E+00 0.00000000E+00
21  3 0.00000000E+00 0.00000000E+00 0.00000000E+00 0.00000000E+00 0.00000000E+00
21  4 0.00000000E+00 0.00000000E+00 0.00000000E+00 0.00000000E+00 0.00000000E+00
21  5 0.00000000E+00 0.00000000E+00 0.00000000E+00 0.00000000E+00 0.00000000E+00
21  6 0.00000000E+00 0.00000000E+00 0.00000000E+00 0.00000000E+00 0.00000000E+00
21  7 0.00000000E+00 0.00000000E+00 9.52640056E-03-9.52640056E-03 0.00000000E+00
21  8 0.00000000E+00 0.00000000E+00 0.00000000E+00-2.37648668E-01 2.37648668E-01
21  9 0.00000000E+00 0.00000000E+00 0.00000000E+00 0.00000000E+00 3.37330116E-01
21 10-3.37330116E-01 0.00000000E+00 0.00000000E+00 0.00000000E+00 0.00000000E+00
21 11-1.49639020E+00 1.49639020E+00 0.00000000E+00 0.00000000E+00 0.00000000E+00
21 12 0.00000000E+00 1.54929875E+00-1.54929875E+00 0.00000000E+00 0.00000000E+00
21 13 0.00000000E+00 0.00000000E+00
22  1-0.00000000E+00-0.00000000E+00-0.00000000E+00-0.00000000E+00-0.00000000E+00
22  2-0.00000000E+00-0.00000000E+00-0.00000000E+00-0.00000000E+00-0.00000000E+00
22  3-0.00000000E+00-0.00000000E+00-0.00000000E+00-0.00000000E+00-0.00000000E+00
22  4-0.00000000E+00-0.00000000E+00-0.00000000E+00-0.00000000E+00-0.00000000E+00
22  5-0.00000000E+00-0.00000000E+00-0.00000000E+00-0.00000000E+00-0.00000000E+00
22  6-0.00000000E+00-0.00000000E+00-0.00000000E+00-0.00000000E+00-0.00000000E+00
22  7-0.00000000E+00-0.00000000E+00-0.00000000E+00-0.00000000E+00-0.00000000E+00
22  8-0.00000000E+00-1.05120259E-02-0.00000000E+00-0.00000000E+00-0.00000000E+00
22  9-0.00000000E+00-0.00000000E+00 3.05421801E-01-0.00000000E+00-0.00000000E+00
22 10-0.00000000E+00-0.00000000E+00-0.00000000E+00-3.90615014E-01-0.00000000E+00
22 11-0.00000000E+00-0.00000000E+00-0.00000000E+00-0.00000000E+00 1.86121271E+00
22 12-0.00000000E+00-0.00000000E+00-0.00000000E+00-0.00000000E+00-0.00000000E+00
22 13-1.69264377E+00-0.00000000E+00
23  1-0.00000000E+00-0.00000000E+00-0.00000000E+00-0.00000000E+00-0.00000000E+00
23  2-0.00000000E+00-0.00000000E+00-0.00000000E+00-0.00000000E+00-0.00000000E+00
23  3-0.00000000E+00-0.00000000E+00-0.00000000E+00-0.00000000E+00-0.00000000E+00
23  4-0.00000000E+00-0.00000000E+00-0.00000000E+00-0.00000000E+00-0.00000000E+00
23  5-0.00000000E+00-0.00000000E+00-0.00000000E+00-0.00000000E+00-0.00000000E+00
23  6-0.00000000E+00-0.00000000E+00-0.00000000E+00-0.00000000E+00-0.00000000E+00
23  7-0.00000000E+00-0.00000000E+00-0.00000000E+00-0.00000000E+00-0.00000000E+00
23  8-0.00000000E+00-0.00000000E+00-1.05120259E-02-0.00000000E+00-0.00000000E+00
23  9-0.00000000E+00-0.00000000E+00-0.00000000E+00 3.05421801E-01-0.00000000E+00
23 10-0.00000000E+00-0.00000000E+00-0.00000000E+00-0.00000000E+00-3.90615014E-01
23 11-0.00000000E+00-0.00000000E+00-0.00000000E+00-0.00000000E+00-0.00000000E+00
23 12 1.86121271E+00-0.00000000E+00-0.00000000E+00-0.00000000E+00-0.00000000E+00
23 13-0.00000000E+00-1.69264377E+00
24  1-0.00000000E+00-0.00000000E+00-0.00000000E+00-0.00000000E+00-0.00000000E+00
24  2-0.00000000E+00-0.00000000E+00-0.00000000E+00-0.00000000E+00-0.00000000E+00
24  3-0.00000000E+00-0.00000000E+00-0.00000000E+00-0.00000000E+00-0.00000000E+00
24  4-0.00000000E+00-0.00000000E+00-0.00000000E+00-0.00000000E+00-0.00000000E+00
24  5-0.00000000E+00-0.00000000E+00-0.00000000E+00-0.00000000E+00-0.00000000E+00
24  6-0.00000000E+00-0.00000000E+00-0.00000000E+00-0.00000000E+00-0.00000000E+00
24  7-0.00000000E+00-0.00000000E+00-0.00000000E+00-0.00000000E+00-0.00000000E+00
24  8-1.05120259E-02-0.00000000E+00-0.00000000E+00-0.00000000E+00-0.00000000E+00
24  9-0.00000000E+00 3.05421801E-01-0.00000000E+00-0.00000000E+00-0.00000000E+00
24 10-0.00000000E+00-0.00000000E+00-3.90615014E-01-0.00000000E+00-0.00000000E+00
24 11-0.00000000E+00-0.00000000E+00-0.00000000E+00 1.86121271E+00-0.00000000E+00
24 12-0.00000000E+00-0.00000000E+00-0.00000000E+00-0.00000000E+00-1.69264377E+00
24 13-0.00000000E+00-0.00000000E+00
25  1-1.26609660E-02-2.46915383E-02 6.45896949E-01 4.15446731E-02-1.29533919E+00
25  2 2.70594976E+00-1.96129045E+00 1.11848754E-01 1.44427371E+00-1.73830479E+00
25  3 8.31556856E-01 0.00000000E+00 0.00000000E+00 0.00000000E+00 0.00000000E+00
25  4 0.00000000E+00 0.00000000E+00 0.00000000E+00 0.00000000E+00 0.00000000E+00
25  5 0.00000000E+00 0.00000000E+00 0.00000000E+00 0.00000000E+00 0.00000000E+00
25  6 0.00000000E+00 0.00000000E+00 0.00000000E+00 0.00000000E+00 0.00000000E+00
25  7 0.00000000E+00 0.00000000E+00 0.00000000E+00 0.00000000E+00 0.00000000E+00
25  8 0.00000000E+00 0.00000000E+00 0.00000000E+00 0.00000000E+00 0.00000000E+00
25  9 0.00000000E+00 0.00000000E+00 0.00000000E+00 0.00000000E+00 0.00000000E+00
25 10 0.00000000E+00 0.00000000E+00 0.00000000E+00 0.00000000E+00 0.00000000E+00
25 11 0.00000000E+00 0.00000000E+00 0.00000000E+00 0.00000000E+00 0.00000000E+00
25 12 0.00000000E+00 0.00000000E+00 0.00000000E+00 0.00000000E+00 0.00000000E+00
25 13 0.00000000E+00 0.00000000E+00
26  1 0.00000000E+00 0.00000000E+00 0.00000000E+00 0.00000000E+00 0.00000000E+00
26  2 0.00000000E+00 0.00000000E+00 0.00000000E+00 0.00000000E+00 0.00000000E+00
26  3 0.00000000E+00 0.00000000E+00 0.00000000E+00 0.00000000E+00 0.00000000E+00
26  4 0.00000000E+00 0.00000000E+00 0.00000000E+00 0.00000000E+00 0.00000000E+00
26  5 0.00000000E+00 0.00000000E+00 0.00000000E+00 0.00000000E+00 0.00000000E+00
26  6 0.00000000E+00 0.00000000E+00 0.00000000E+00 0.00000000E+00 0.00000000E+00
26  7 0.00000000E+00 0.00000000E+00-7.74300570E-02 7.74300570E-02 0.00000000E+00
26  8 0.00000000E+00 0.00000000E+00 0.00000000E+00 3.38793602E-01-3.38793602E-01
26  9 0.00000000E+00 0.00000000E+00 0.00000000E+00 0.00000000E+00-2.17800528E+00
26 10 2.17800528E+00 0.00000000E+00 0.00000000E+00 0.00000000E+00 0.00000000E+00
26 11 2.77125623E+00-2.77125623E+00 0.00000000E+00 0.00000000E+00 0.00000000E+00
26 12 0.00000000E+00-1.18019794E+00 1.18019794E+00 0.00000000E+00 0.00000000E+00
26 13 0.00000000E+00 0.00000000E+00
27  1 0.00000000E+00 0.00000000E+00 0.00000000E+00 0.00000000E+00 0.00000000E+00
27  2 0.00000000E+00 0.00000000E+00 0.00000000E+00 0.00000000E+00 0.00000000E+00
27  3 0.00000000E+00 0.00000000E+00 0.00000000E+00 0.00000000E+00 0.00000000E+00
27  4 0.00000000E+00 0.00000000E+00 0.00000000E+00 0.00000000E+00 0.00000000E+00
27  5 0.00000000E+00 0.00000000E+00 0.00000000E+00 0.00000000E+00 0.00000000E+00
27  6 0.00000000E+00 0.00000000E+00 0.00000000E+00 0.00000000E+00 0.00000000E+00
27  7 0.00000000E+00 0.00000000E+00 4.47042642E-02 4.47042642E-02-8.94085285E-02
27  8 0.00000000E+00 0.00000000E+00 0.00000000E+00-1.95602577E-01-1.95602577E-01
27  9 3.91205155E-01 0.00000000E+00 0.00000000E+00 0.00000000E+00 1.25747193E+00
27 10 1.25747193E+00-2.51494386E+00 0.00000000E+00 0.00000000E+00 0.00000000E+00
27 11-1.59998553E+00-1.59998553E+00 3.19997106E+00 0.00000000E+00 0.00000000E+00
27 12 0.00000000E+00 6.81387596E-01 6.81387596E-01-1.36277519E+00 0.00000000E+00
27 13 0.00000000E+00 0.00000000E+00
28  1 0.00000000E+00 0.00000000E+00 0.00000000E+00 0.00000000E+00 0.00000000E+00
28  2 0.00000000E+00 0.00000000E+00 0.00000000E+00 0.00000000E+00 0.00000000E+00
28  3 0.00000000E+00 0.00000000E+00 0.00000000E+00 0.00000000E+00 0.00000000E+00
28  4 0.00000000E+00 0.00000000E+00 0.00000000E+00 0.00000000E+00 0.00000000E+00
28  5 0.00000000E+00 0.00000000E+00 0.00000000E+00 0.00000000E+00 0.00000000E+00
28  6 0.00000000E+00 0.00000000E+00 0.00000000E+00 0.00000000E+00 0.00000000E+00
28  7 0.00000000E+00 0.00000000E+00 0.00000000E+00 0.00000000E+00 0.00000000E+00
28  8 0.00000000E+00 0.00000000E+00-9.04387766E-02 0.00000000E+00 0.00000000E+00
28  9 0.00000000E+00 0.00000000E+00 0.00000000E+00 3.91845482E-01 0.00000000E+00