 $CONTRL RUNTYP=ENERGY EXETYP=RUN COORD=UNIQUE NORMF=1 UNITS=BOHR MULT=3
         ISPHER=1                                                               # gives 5 rather than 6 d fns etc.
         SCFTYP=MCSCF CITYP=NONE MAXIT=200 $END                                 # MCSCF only
#        SCFTYP=ROHF $END                                                       # ROHF only
#        SCFTYP=NONE CITYP=GUGA MAXIT=200 $END                                  # CI only
 $SYSTEM MWORDS=100 $END
#$GUESS  GUESS=HUCKEL PRTMO=.TRUE. $END                                         # ROHF only
 $GUESS  GUESS=MOREAD PRTMO=.TRUE. NORB=23 $END                                 # MCSCF and CI only
#$DFT    DFTTYP=SVWN THRESH=1.0E-15 $END
#$SCF    MVOQ=0 DIRSCF=.FALSE. RSTRCT=.TRUE. $END
#$SCF    DIIS=.F. SOSCF=.T. $END                                                # sometimes needed to get correct convergence for DNH 4
 $MCSCF  CISTEP=GUGA MAXIT=200 $END                                             # MCSCF only
 $DRT    GROUP=D4H IEXCIT=4 NDOC=1 NALP=2 NVAL=5  NMCC=1 NPRT=1                 # MCSCF only
         NEXT=0 SOCI=.FALSE. $END                                               # MCSCF only
#$CIDRT  GROUP=D4H IEXCIT=4 NDOC=1 NALP=2 NVAL=5 NFZC=1 NPRT=2 $END             # CI only
 $GUGDIA NSTATE=1 PRTTOL=0.001 KPRINT=2 $END                                    # MCSCF and CI only

 $DATA
C with D4H symmetry and CVB1 basis
DNH 4

C 6.  0. 0. 0.
1S   14   8.361682
1S   14   5.206173
1S   14   10.30548
2S   14   4.063249
2S   14   2.057774
2S   14   1.329176
2P   14   3.571537
2P   14   1.748226
2P   14   1.059707
2P   14   8.081902
3D   14   1.953933

 $END

--- OPEN SHELL ORBITALS --- GENERATED AT Tue Feb 21 22:51:45 2017
C with D4H symmetry and CVB1 basis
E(ROHF)=      -37.6884418091, E(NUC)=    0.0000000000,    8 ITERS
 $VEC   
 1  1 1.34025642E-01 8.86292615E-01 2.39978799E-03-2.01196182E-02 6.26786907E-03
 1  2-5.32880377E-03-0.00000000E+00-0.00000000E+00-0.00000000E+00-0.00000000E+00
 1  3-0.00000000E+00-0.00000000E+00-0.00000000E+00-0.00000000E+00-0.00000000E+00
 1  4-0.00000000E+00-0.00000000E+00-0.00000000E+00 1.97009062E-04 1.97009062E-04
 1  5-3.94018123E-04-0.00000000E+00-0.00000000E+00-0.00000000E+00
 2  1 6.03743807E-02-2.78795811E-01-3.16636023E-02-2.95879601E-02 5.55177786E-01
 2  2 5.34150144E-01-0.00000000E+00-0.00000000E+00-0.00000000E+00-0.00000000E+00
 2  3-0.00000000E+00-0.00000000E+00-0.00000000E+00-0.00000000E+00-0.00000000E+00
 2  4-0.00000000E+00-0.00000000E+00-0.00000000E+00 1.69420168E-03 1.69420168E-03
 2  5-3.38840337E-03-0.00000000E+00-0.00000000E+00-0.00000000E+00
 3  1-0.00000000E+00-0.00000000E+00-0.00000000E+00-0.00000000E+00-0.00000000E+00
 3  2-0.00000000E+00 9.07087012E-02-0.00000000E+00-0.00000000E+00 5.24383308E-01
 3  3-0.00000000E+00-0.00000000E+00 4.52921104E-01-0.00000000E+00-0.00000000E+00
 3  4 1.74359583E-03-0.00000000E+00-0.00000000E+00-0.00000000E+00-0.00000000E+00
 3  5-0.00000000E+00-0.00000000E+00-0.00000000E+00-0.00000000E+00
 4  1-0.00000000E+00-0.00000000E+00-0.00000000E+00-0.00000000E+00-0.00000000E+00
 4  2-0.00000000E+00-0.00000000E+00 9.07087012E-02-0.00000000E+00-0.00000000E+00
 4  3 5.24383308E-01-0.00000000E+00-0.00000000E+00 4.52921104E-01-0.00000000E+00
 4  4-0.00000000E+00 1.74359583E-03-0.00000000E+00-0.00000000E+00-0.00000000E+00
 4  5-0.00000000E+00-0.00000000E+00-0.00000000E+00-0.00000000E+00
 5  1-0.00000000E+00-0.00000000E+00-0.00000000E+00-0.00000000E+00-0.00000000E+00
 5  2-0.00000000E+00-0.00000000E+00-0.00000000E+00 1.20053285E-01-0.00000000E+00
 5  3-0.00000000E+00 9.63864845E-02-0.00000000E+00-0.00000000E+00 8.56609443E-01
 5  4-0.00000000E+00-0.00000000E+00-4.93382069E-03-0.00000000E+00-0.00000000E+00
 5  5-0.00000000E+00-0.00000000E+00-0.00000000E+00-0.00000000E+00
 6  1 0.00000000E+00 0.00000000E+00 0.00000000E+00 0.00000000E+00 0.00000000E+00
 6  2 0.00000000E+00-2.67822464E-01 0.00000000E+00 0.00000000E+00 2.16015684E+00
 6  3 0.00000000E+00 0.00000000E+00-2.07214603E+00 0.00000000E+00 0.00000000E+00
 6  4 4.55099614E-02 0.00000000E+00 0.00000000E+00 0.00000000E+00 0.00000000E+00
 6  5 0.00000000E+00 0.00000000E+00 0.00000000E+00 0.00000000E+00
 7  1 0.00000000E+00 0.00000000E+00 0.00000000E+00 0.00000000E+00 0.00000000E+00
 7  2 0.00000000E+00 0.00000000E+00-2.67822464E-01 0.00000000E+00 0.00000000E+00
 7  3 2.16015684E+00 0.00000000E+00 0.00000000E+00-2.07214603E+00 0.00000000E+00
 7  4 0.00000000E+00 4.55099614E-02 0.00000000E+00 0.00000000E+00 0.00000000E+00
 7  5 0.00000000E+00 0.00000000E+00 0.00000000E+00 0.00000000E+00
 8  1-1.75109645E+00 1.35460407E+00 7.31017448E-01-1.49726110E+00 3.58714569E+00
 8  2-2.82542963E+00 0.00000000E+00 0.00000000E+00 0.00000000E+00 0.00000000E+00
 8  3 0.00000000E+00 0.00000000E+00 0.00000000E+00 0.00000000E+00 0.00000000E+00
 8  4 0.00000000E+00 0.00000000E+00 0.00000000E+00 1.04708933E-02 1.04708933E-02
 8  5-2.09417867E-02 0.00000000E+00 0.00000000E+00 0.00000000E+00
 9  1 0.00000000E+00 0.00000000E+00 0.00000000E+00 0.00000000E+00 0.00000000E+00
 9  2 0.00000000E+00 0.00000000E+00 0.00000000E+00-2.94779348E-01 0.00000000E+00
 9  3 0.00000000E+00 2.28489492E+00 0.00000000E+00 0.00000000E+00-1.96497240E+00
 9  4 0.00000000E+00 0.00000000E+00 5.10692557E-02 0.00000000E+00 0.00000000E+00
 9  5 0.00000000E+00 0.00000000E+00 0.00000000E+00 0.00000000E+00
10  1 0.00000000E+00 0.00000000E+00 0.00000000E+00 0.00000000E+00 0.00000000E+00
10  2 0.00000000E+00 0.00000000E+00 0.00000000E+00 0.00000000E+00 0.00000000E+00
10  3 0.00000000E+00 0.00000000E+00 0.00000000E+00 0.00000000E+00 0.00000000E+00
10  4 0.00000000E+00 0.00000000E+00 0.00000000E+00 0.00000000E+00 0.00000000E+00
10  5 0.00000000E+00 1.00000001E+00 0.00000000E+00 0.00000000E+00
11  1 0.00000000E+00 0.00000000E+00 0.00000000E+00 0.00000000E+00 0.00000000E+00
11  2 0.00000000E+00 0.00000000E+00 0.00000000E+00 0.00000000E+00 0.00000000E+00
11  3 0.00000000E+00 0.00000000E+00 0.00000000E+00 0.00000000E+00 0.00000000E+00
11  4 0.00000000E+00 0.00000000E+00 0.00000000E+00 8.66025408E-01-8.66025408E-01
11  5 0.00000000E+00 0.00000000E+00 0.00000000E+00 0.00000000E+00
12  1 0.00000000E+00 0.00000000E+00 0.00000000E+00 0.00000000E+00 0.00000000E+00
12  2 0.00000000E+00 0.00000000E+00 0.00000000E+00 0.00000000E+00 0.00000000E+00
12  3 0.00000000E+00 0.00000000E+00 0.00000000E+00 0.00000000E+00 0.00000000E+00
12  4 0.00000000E+00 0.00000000E+00 0.00000000E+00 0.00000000E+00 0.00000000E+00
12  5 0.00000000E+00 0.00000000E+00 0.00000000E+00 1.00000001E+00
13  1-0.00000000E+00-0.00000000E+00-0.00000000E+00-0.00000000E+00-0.00000000E+00
13  2-0.00000000E+00-0.00000000E+00-0.00000000E+00-0.00000000E+00-0.00000000E+00
13  3-0.00000000E+00-0.00000000E+00-0.00000000E+00-0.00000000E+00-0.00000000E+00
13  4-0.00000000E+00-0.00000000E+00-0.00000000E+00-0.00000000E+00-0.00000000E+00
13  5-0.00000000E+00-0.00000000E+00 1.00000001E+00-0.00000000E+00
14  1-4.86937951E-02 3.88171075E-02 2.04981862E-02-3.92112623E-02 8.24165641E-02
14  2-5.97864880E-02-0.00000000E+00-0.00000000E+00-0.00000000E+00-0.00000000E+00
14  3-0.00000000E+00-0.00000000E+00-0.00000000E+00-0.00000000E+00-0.00000000E+00
14  4-0.00000000E+00-0.00000000E+00-0.00000000E+00-4.99887086E-01-4.99887086E-01
14  5 9.99774172E-01-0.00000000E+00-0.00000000E+00-0.00000000E+00
15  1-0.00000000E+00-0.00000000E+00-0.00000000E+00-0.00000000E+00-0.00000000E+00
15  2-0.00000000E+00-2.09509743E+00-0.00000000E+00-0.00000000E+00 2.59272783E+00
15  3-0.00000000E+00-0.00000000E+00-1.28296282E+00-0.00000000E+00-0.00000000E+00
15  4 2.46596185E-01-0.00000000E+00-0.00000000E+00-0.00000000E+00-0.00000000E+00
15  5-0.00000000E+00-0.00000000E+00-0.00000000E+00-0.00000000E+00
16  1-0.00000000E+00-0.00000000E+00-0.00000000E+00-0.00000000E+00-0.00000000E+00
16  2-0.00000000E+00-0.00000000E+00-2.09509743E+00-0.00000000E+00-0.00000000E+00
16  3 2.59272783E+00-0.00000000E+00-0.00000000E+00-1.28296282E+00-0.00000000E+00
16  4-0.00000000E+00 2.46596185E-01-0.00000000E+00-0.00000000E+00-0.00000000E+00
16  5-0.00000000E+00-0.00000000E+00-0.00000000E+00-0.00000000E+00
17  1-0.00000000E+00-0.00000000E+00-0.00000000E+00-0.00000000E+00-0.00000000E+00
17  2-0.00000000E+00-0.00000000E+00-0.00000000E+00-2.09085190E+00-0.00000000E+00
17  3-0.00000000E+00 2.53720570E+00-0.00000000E+00-0.00000000E+00-1.24542148E+00
17  4-0.00000000E+00-0.00000000E+00 2.46254066E-01-0.00000000E+00-0.00000000E+00
17  5-0.00000000E+00-0.00000000E+00-0.00000000E+00-0.00000000E+00
18  1 8.99297824E+00-8.37157542E+00-3.81515501E+00 6.14849054E+00-4.38143082E+00
18  2 1.96552981E+00-0.00000000E+00-0.00000000E+00-0.00000000E+00-0.00000000E+00
18  3-0.00000000E+00-0.00000000E+00-0.00000000E+00-0.00000000E+00-0.00000000E+00
18  4-0.00000000E+00-0.00000000E+00-0.00000000E+00-5.95118024E-04-5.95118024E-04
18  5 1.19023605E-03-0.00000000E+00-0.00000000E+00-0.00000000E+00
19  1 2.52572981E+01-1.75449804E+01-1.19165594E+01 6.93874159E+00-2.94774061E+00
19  2 1.18882182E+00 0.00000000E+00 0.00000000E+00 0.00000000E+00 0.00000000E+00
19  3 0.00000000E+00 0.00000000E+00 0.00000000E+00 0.00000000E+00 0.00000000E+00
19  4 0.00000000E+00 0.00000000E+00 0.00000000E+00-2.94718757E-05-2.94718757E-05
19  5 5.89437513E-05 0.00000000E+00 0.00000000E+00 0.00000000E+00
20  1 0.00000000E+00 0.00000000E+00 0.00000000E+00 0.00000000E+00 0.00000000E+00
20  2 0.00000000E+00 1.71945228E+00 0.00000000E+00 0.00000000E+00-1.38065571E+00
20  3 0.00000000E+00 0.00000000E+00 6.37469612E-01 0.00000000E+00 0.00000000E+00
20  4-1.57669578E+00 0.00000000E+00 0.00000000E+00 0.00000000E+00 0.00000000E+00
20  5 0.00000000E+00 0.00000000E+00 0.00000000E+00 0.00000000E+00
21  1 0.00000000E+00 0.00000000E+00 0.00000000E+00 0.00000000E+00 0.00000000E+00
21  2 0.00000000E+00 0.00000000E+00 1.71945228E+00 0.00000000E+00 0.00000000E+00
21  3-1.38065571E+00 0.00000000E+00 0.00000000E+00 6.37469612E-01 0.00000000E+00
21  4 0.00000000E+00-1.57669578E+00 0.00000000E+00 0.00000000E+00 0.00000000E+00
21  5 0.00000000E+00 0.00000000E+00 0.00000000E+00 0.00000000E+00
22  1 0.00000000E+00 0.00000000E+00 0.00000000E+00 0.00000000E+00 0.00000000E+00
22  2 0.00000000E+00 0.00000000E+00 0.00000000E+00 1.71841119E+00 0.00000000E+00
22  3 0.00000000E+00-1.37922272E+00 0.00000000E+00 0.00000000E+00 6.36644996E-01
22  4 0.00000000E+00 0.00000000E+00-1.57657223E+00 0.00000000E+00 0.00000000E+00
22  5 0.00000000E+00 0.00000000E+00 0.00000000E+00 0.00000000E+00
23  1 3.76116752E+01-1.84959583E+01-2.34553929E+01 5.77246775E+00-2.15585829E+00
23  2 8.54931150E-01 0.00000000E+00 0.00000000E+00 0.00000000E+00 0.00000000E+00
23  3 0.00000000E+00 0.00000000E+00 0.00000000E+00 0.00000000E+00 0.00000000E+00
23  4 0.00000000E+00 0.00000000E+00 0.00000000E+00-1.01783552E-06-1.01783552E-06
23  5 2.03567104E-06 0.00000000E+00 0.00000000E+00 0.00000000E+00
 $END   
 POPULATION ANALYSIS
C            6.00000  -0.00000   6.00000  -0.00000
 MOMENTS AT POINT    1 X,Y,Z=  0.000000  0.000000  0.000000
 DIPOLE       0.000000  0.000000  0.000000
