 $CONTRL RUNTYP=ENERGY EXETYP=RUN COORD=UNIQUE NORMF=1 UNITS=BOHR MULT=3
         ISPHER=1                                                               # gives 5 rather than 6 d fns etc.
         SCFTYP=MCSCF CITYP=NONE MAXIT=200 $END                                 # MCSCF only
#        SCFTYP=ROHF $END                                                       # ROHF only
#        SCFTYP=NONE CITYP=GUGA MAXIT=200 $END                                  # CI only
 $SYSTEM MWORDS=100 $END
#$GUESS  GUESS=HUCKEL PRTMO=.TRUE. $END                                         # ROHF only
 $GUESS  GUESS=MOREAD PRTMO=.TRUE. NORB=23 $END                                 # MCSCF and CI only
#$DFT    DFTTYP=SVWN THRESH=1.0E-15 $END
#$SCF    MVOQ=0 DIRSCF=.FALSE. RSTRCT=.TRUE. $END
#$SCF    DIIS=.F. SOSCF=.T. $END                                                # sometimes needed to get correct convergence for DNH 4
 $MCSCF  CISTEP=GUGA MAXIT=200 $END                                             # MCSCF only
 $DRT    GROUP=D2H IEXCIT=4 NDOC=1 NALP=2 NVAL=1  NMCC=1 NPRT=1                 # MCSCF only
         NEXT=0 SOCI=.FALSE. $END                                               # MCSCF only
#$CIDRT  GROUP=D2H IEXCIT=4 NDOC=1 NALP=2 NVAL=1 NFZC=1 NPRT=2 $END             # CI only
 $GUGDIA NSTATE=1 PRTTOL=0.001 KPRINT=2 $END                                    # MCSCF and CI only

 $DATA
C with D2H symmetry and CVB1 basis
DNH 2

C 6.  0. 0. 0.
1S   14   8.361682
1S   14   5.206173
1S   14   10.30548
2S   14   4.063249
2S   14   2.057774
2S   14   1.329176
2P   14   3.571537
2P   14   1.748226
2P   14   1.059707
2P   14   8.081902
3D   14   1.953933

 $END
--- OPEN SHELL ORBITALS --- GENERATED AT Wed Mar 15 16:52:17 2017
C with D2H symmetry and CVB1 basis                                              
E(ROHF)=      -37.6884418091, E(NUC)=    0.0000000000,    8 ITERS
 $VEC   
 1  1 1.34025641E-01 8.86292615E-01 2.39978817E-03-2.01196181E-02 6.26786909E-03
 1  2-5.32880394E-03-0.00000000E+00-0.00000000E+00-0.00000000E+00-0.00000000E+00
 1  3-0.00000000E+00-0.00000000E+00-0.00000000E+00-0.00000000E+00-0.00000000E+00
 1  4-0.00000000E+00-0.00000000E+00-0.00000000E+00 1.97009080E-04 1.97009080E-04
 1  5-3.94018161E-04-0.00000000E+00-0.00000000E+00-0.00000000E+00
 2  1 6.03743679E-02-2.78795798E-01-3.16635969E-02-2.95879684E-02 5.55177785E-01
 2  2 5.34150148E-01-0.00000000E+00-0.00000000E+00-0.00000000E+00-0.00000000E+00
 2  3-0.00000000E+00-0.00000000E+00-0.00000000E+00-0.00000000E+00-0.00000000E+00
 2  4-0.00000000E+00-0.00000000E+00-0.00000000E+00 1.69420174E-03 1.69420174E-03
 2  5-3.38840348E-03-0.00000000E+00-0.00000000E+00-0.00000000E+00
 3  1-0.00000000E+00-0.00000000E+00-0.00000000E+00-0.00000000E+00-0.00000000E+00
 3  2-0.00000000E+00 9.07086933E-02-0.00000000E+00-0.00000000E+00 5.24383341E-01
 3  3-0.00000000E+00-0.00000000E+00 4.52921074E-01-0.00000000E+00-0.00000000E+00
 3  4 1.74359688E-03-0.00000000E+00-0.00000000E+00-0.00000000E+00-0.00000000E+00
 3  5-0.00000000E+00-0.00000000E+00-0.00000000E+00-0.00000000E+00
 4  1-0.00000000E+00-0.00000000E+00-0.00000000E+00-0.00000000E+00-0.00000000E+00
 4  2-0.00000000E+00-0.00000000E+00 9.07086933E-02-0.00000000E+00-0.00000000E+00
 4  3 5.24383341E-01-0.00000000E+00-0.00000000E+00 4.52921074E-01-0.00000000E+00
 4  4-0.00000000E+00 1.74359688E-03-0.00000000E+00-0.00000000E+00-0.00000000E+00
 4  5-0.00000000E+00-0.00000000E+00-0.00000000E+00-0.00000000E+00
 5  1-0.00000000E+00-0.00000000E+00-0.00000000E+00-0.00000000E+00-0.00000000E+00
 5  2-0.00000000E+00-0.00000000E+00-0.00000000E+00 1.20053289E-01-0.00000000E+00
 5  3-0.00000000E+00 9.63864314E-02-0.00000000E+00-0.00000000E+00 8.56609490E-01
 5  4-0.00000000E+00-0.00000000E+00-4.93382156E-03-0.00000000E+00-0.00000000E+00
 5  5-0.00000000E+00-0.00000000E+00-0.00000000E+00-0.00000000E+00
 6  1 0.00000000E+00 0.00000000E+00 0.00000000E+00 0.00000000E+00 0.00000000E+00
 6  2 0.00000000E+00 0.00000000E+00-2.67822473E-01 0.00000000E+00 0.00000000E+00
 6  3 2.16015684E+00 0.00000000E+00 0.00000000E+00-2.07214604E+00 0.00000000E+00
 6  4 0.00000000E+00 4.55099624E-02 0.00000000E+00 0.00000000E+00 0.00000000E+00
 6  5 0.00000000E+00 0.00000000E+00 0.00000000E+00 0.00000000E+00
 7  1 0.00000000E+00 0.00000000E+00 0.00000000E+00 0.00000000E+00 0.00000000E+00
 7  2 0.00000000E+00-2.67822473E-01 0.00000000E+00 0.00000000E+00 2.16015684E+00
 7  3 0.00000000E+00 0.00000000E+00-2.07214604E+00 0.00000000E+00 0.00000000E+00
 7  4 4.55099624E-02 0.00000000E+00 0.00000000E+00 0.00000000E+00 0.00000000E+00
 7  5 0.00000000E+00 0.00000000E+00 0.00000000E+00 0.00000000E+00
 8  1-1.75109647E+00 1.35460409E+00 7.31017460E-01-1.49726112E+00 3.58714571E+00
 8  2-2.82542964E+00-0.00000000E+00-0.00000000E+00-0.00000000E+00-0.00000000E+00
 8  3-0.00000000E+00-0.00000000E+00-0.00000000E+00-0.00000000E+00-0.00000000E+00
 8  4-0.00000000E+00-0.00000000E+00-0.00000000E+00 1.04708965E-02 1.04708965E-02
 8  5-2.09417930E-02-0.00000000E+00-0.00000000E+00-0.00000000E+00
 9  1 0.00000000E+00 0.00000000E+00 0.00000000E+00 0.00000000E+00 0.00000000E+00
 9  2 0.00000000E+00 0.00000000E+00 0.00000000E+00-2.94779355E-01 0.00000000E+00
 9  3 0.00000000E+00 2.28489494E+00 0.00000000E+00 0.00000000E+00-1.96497239E+00
 9  4 0.00000000E+00 0.00000000E+00 5.10692570E-02 0.00000000E+00 0.00000000E+00
 9  5 0.00000000E+00 0.00000000E+00 0.00000000E+00 0.00000000E+00
10  1 0.00000000E+00 0.00000000E+00 0.00000000E+00 0.00000000E+00 0.00000000E+00
10  2 0.00000000E+00 0.00000000E+00 0.00000000E+00 0.00000000E+00 0.00000000E+00
10  3 0.00000000E+00 0.00000000E+00 0.00000000E+00 0.00000000E+00 0.00000000E+00
10  4 0.00000000E+00 0.00000000E+00 0.00000000E+00 0.00000000E+00 0.00000000E+00
10  5 0.00000000E+00 1.00000001E+00 0.00000000E+00 0.00000000E+00
11  1 0.00000000E+00 0.00000000E+00 0.00000000E+00 0.00000000E+00 0.00000000E+00
11  2 0.00000000E+00 0.00000000E+00 0.00000000E+00 0.00000000E+00 0.00000000E+00
11  3 0.00000000E+00 0.00000000E+00 0.00000000E+00 0.00000000E+00 0.00000000E+00
11  4 0.00000000E+00 0.00000000E+00 0.00000000E+00-8.66025408E-01 8.66025408E-01
11  5 0.00000000E+00 0.00000000E+00 0.00000000E+00 0.00000000E+00
12  1 0.00000000E+00 0.00000000E+00 0.00000000E+00 0.00000000E+00 0.00000000E+00
12  2 0.00000000E+00 0.00000000E+00 0.00000000E+00 0.00000000E+00 0.00000000E+00
12  3 0.00000000E+00 0.00000000E+00 0.00000000E+00 0.00000000E+00 0.00000000E+00
12  4 0.00000000E+00 0.00000000E+00 0.00000000E+00 0.00000000E+00 0.00000000E+00
12  5 0.00000000E+00 0.00000000E+00 0.00000000E+00 1.00000001E+00
13  1 0.00000000E+00 0.00000000E+00 0.00000000E+00 0.00000000E+00 0.00000000E+00
13  2 0.00000000E+00 0.00000000E+00 0.00000000E+00 0.00000000E+00 0.00000000E+00
13  3 0.00000000E+00 0.00000000E+00 0.00000000E+00 0.00000000E+00 0.00000000E+00
13  4 0.00000000E+00 0.00000000E+00 0.00000000E+00 0.00000000E+00 0.00000000E+00
13  5 0.00000000E+00 0.00000000E+00 1.00000001E+00 0.00000000E+00
14  1-4.86938077E-02 3.88171173E-02 2.04981915E-02-3.92112725E-02 8.24165874E-02
14  2-5.97865060E-02 0.00000000E+00 0.00000000E+00 0.00000000E+00 0.00000000E+00
14  3 0.00000000E+00 0.00000000E+00 0.00000000E+00 0.00000000E+00 0.00000000E+00
14  4 0.00000000E+00 0.00000000E+00 0.00000000E+00-4.99887086E-01-4.99887086E-01
14  5 9.99774172E-01 0.00000000E+00 0.00000000E+00 0.00000000E+00
15  1-0.00000000E+00-0.00000000E+00-0.00000000E+00-0.00000000E+00-0.00000000E+00
15  2-0.00000000E+00-0.00000000E+00-2.09509743E+00-0.00000000E+00-0.00000000E+00
15  3 2.59272783E+00-0.00000000E+00-0.00000000E+00-1.28296281E+00-0.00000000E+00
15  4-0.00000000E+00 2.46596185E-01-0.00000000E+00-0.00000000E+00-0.00000000E+00
15  5-0.00000000E+00-0.00000000E+00-0.00000000E+00-0.00000000E+00
16  1-0.00000000E+00-0.00000000E+00-0.00000000E+00-0.00000000E+00-0.00000000E+00
16  2-0.00000000E+00-2.09509743E+00-0.00000000E+00-0.00000000E+00 2.59272783E+00
16  3-0.00000000E+00-0.00000000E+00-1.28296281E+00-0.00000000E+00-0.00000000E+00
16  4 2.46596185E-01-0.00000000E+00-0.00000000E+00-0.00000000E+00-0.00000000E+00
16  5-0.00000000E+00-0.00000000E+00-0.00000000E+00-0.00000000E+00
17  1-0.00000000E+00-0.00000000E+00-0.00000000E+00-0.00000000E+00-0.00000000E+00
17  2-0.00000000E+00-0.00000000E+00-0.00000000E+00-2.09085190E+00-0.00000000E+00
17  3-0.00000000E+00 2.53720569E+00-0.00000000E+00-0.00000000E+00-1.24542148E+00
17  4-0.00000000E+00-0.00000000E+00 2.46254066E-01-0.00000000E+00-0.00000000E+00
17  5-0.00000000E+00-0.00000000E+00-0.00000000E+00-0.00000000E+00
18  1 8.99297825E+00-8.37157543E+00-3.81515501E+00 6.14849054E+00-4.38143081E+00
18  2 1.96552981E+00-0.00000000E+00-0.00000000E+00-0.00000000E+00-0.00000000E+00
18  3-0.00000000E+00-0.00000000E+00-0.00000000E+00-0.00000000E+00-0.00000000E+00
18  4-0.00000000E+00-0.00000000E+00-0.00000000E+00-5.95118023E-04-5.95118023E-04
18  5 1.19023605E-03-0.00000000E+00-0.00000000E+00-0.00000000E+00
19  1 2.52572981E+01-1.75449804E+01-1.19165594E+01 6.93874159E+00-2.94774060E+00
19  2 1.18882182E+00-0.00000000E+00-0.00000000E+00-0.00000000E+00-0.00000000E+00
19  3-0.00000000E+00-0.00000000E+00-0.00000000E+00-0.00000000E+00-0.00000000E+00
19  4-0.00000000E+00-0.00000000E+00-0.00000000E+00-2.94718905E-05-2.94718905E-05
19  5 5.89437809E-05-0.00000000E+00-0.00000000E+00-0.00000000E+00
20  1 0.00000000E+00 0.00000000E+00 0.00000000E+00 0.00000000E+00 0.00000000E+00
20  2 0.00000000E+00 0.00000000E+00 1.71945228E+00 0.00000000E+00 0.00000000E+00
20  3-1.38065570E+00 0.00000000E+00 0.00000000E+00 6.37469612E-01 0.00000000E+00
20  4 0.00000000E+00-1.57669578E+00 0.00000000E+00 0.00000000E+00 0.00000000E+00
20  5 0.00000000E+00 0.00000000E+00 0.00000000E+00 0.00000000E+00
21  1 0.00000000E+00 0.00000000E+00 0.00000000E+00 0.00000000E+00 0.00000000E+00
21  2 0.00000000E+00 1.71945228E+00 0.00000000E+00 0.00000000E+00-1.38065570E+00
21  3 0.00000000E+00 0.00000000E+00 6.37469612E-01 0.00000000E+00 0.00000000E+00
21  4-1.57669578E+00 0.00000000E+00 0.00000000E+00 0.00000000E+00 0.00000000E+00
21  5 0.00000000E+00 0.00000000E+00 0.00000000E+00 0.00000000E+00
22  1 0.00000000E+00 0.00000000E+00 0.00000000E+00 0.00000000E+00 0.00000000E+00
22  2 0.00000000E+00 0.00000000E+00 0.00000000E+00 1.71841119E+00 0.00000000E+00
22  3 0.00000000E+00-1.37922272E+00 0.00000000E+00 0.00000000E+00 6.36644995E-01
22  4 0.00000000E+00 0.00000000E+00-1.57657223E+00 0.00000000E+00 0.00000000E+00
22  5 0.00000000E+00 0.00000000E+00 0.00000000E+00 0.00000000E+00
23  1 3.76116752E+01-1.84959583E+01-2.34553929E+01 5.77246775E+00-2.15585829E+00
23  2 8.54931150E-01 0.00000000E+00 0.00000000E+00 0.00000000E+00 0.00000000E+00
23  3 0.00000000E+00 0.00000000E+00 0.00000000E+00 0.00000000E+00 0.00000000E+00
23  4 0.00000000E+00 0.00000000E+00 0.00000000E+00-1.01783631E-06-1.01783631E-06
23  5 2.03567262E-06 0.00000000E+00 0.00000000E+00 0.00000000E+00
 $END   
 POPULATION ANALYSIS
C            6.00000  -0.00000   6.00000  -0.00000
 MOMENTS AT POINT    1 X,Y,Z=  0.000000  0.000000  0.000000
 DIPOLE       0.000000  0.000000  0.000000
